(set-logic ALL)
(declare-const BAV1 Bool)
(declare-const BAV2 Bool)
(declare-const GEN2 Int)
(declare-const GEN1 Int)
(declare-fun X () Float16)
(declare-fun R () Float16)
(assert (not (= X (_ -zero 5 11))))
(assert (= R (fp.sqrt RNE X)))
(assert (fp.isNegative R))
(assert (= BAV1 (= X (_ -zero 5 11))))
(assert (= BAV2 (= R (fp.sqrt RNE X))))
(check-sat)
(get-model)